p cnf 430 1488
-191 -187 0
-191 82 0
-191 -144 0
-191 -47 0
-191 -22 0
191 187 -82 144 47 22 0
-192 -150 0
-192 137 0
-192 53 0
-192 135 0
-192 -173 0
192 150 -137 -53 -135 173 0
-193 57 0
-193 -100 0
-193 82 0
-193 125 0
-193 19 0
193 -57 100 -82 -125 -19 0
-194 99 0
-194 118 0
-194 -45 0
-194 57 0
-194 106 0
194 -99 -118 45 -57 -106 0
-195 137 0
-195 51 0
-195 34 0
-195 -159 0
-195 166 0
195 -137 -51 -34 159 -166 0
191 192 193 194 195 0
-196 -127 0
-196 167 0
-196 -128 0
-196 170 0
-196 41 0
196 127 -167 128 -170 -41 0
-197 -154 0
-197 138 0
-197 -12 0
-197 119 0
-197 -178 0
197 154 -138 12 -119 178 0
-198 -84 0
-198 -175 0
-198 132 0
-198 -161 0
-198 164 0
198 84 175 -132 161 -164 0
-199 -17 0
-199 -10 0
-199 3 0
-199 -76 0
-199 14 0
199 17 10 -3 76 -14 0
-200 150 0
-200 145 0
-200 -119 0
-200 -134 0
-200 -173 0
200 -150 -145 119 134 173 0
196 197 198 199 200 0
-201 141 0
-201 126 0
-201 -15 0
-201 4 0
-201 -19 0
201 -141 -126 15 -4 19 0
-202 162 0
-202 -167 0
-202 -24 0
-202 -91 0
-202 170 0
202 -162 167 24 91 -170 0
-203 139 0
-203 -121 0
-203 163 0
-203 -84 0
-203 -27 0
203 -139 121 -163 84 27 0
-204 26 0
-204 90 0
-204 -16 0
-204 -120 0
-204 180 0
204 -26 -90 16 120 -180 0
-205 -136 0
-205 -42 0
-205 -39 0
-205 169 0
-205 182 0
205 136 42 39 -169 -182 0
201 202 203 204 205 0
-206 145 0
-206 25 0
-206 105 0
-206 28 0
-206 -136 0
206 -145 -25 -105 -28 136 0
-207 -129 0
-207 41 0
-207 -84 0
-207 48 0
-207 -123 0
207 129 -41 84 -48 123 0
-208 -8 0
-208 142 0
-208 -38 0
-208 146 0
-208 -82 0
208 8 -142 38 -146 82 0
-209 -22 0
-209 -138 0
-209 91 0
-209 111 0
-209 -179 0
209 22 138 -91 -111 179 0
-210 28 0
-210 -143 0
-210 103 0
-210 -149 0
-210 -66 0
210 -28 143 -103 149 66 0
206 207 208 209 210 0
-211 -16 0
-211 -8 0
-211 27 0
-211 157 0
-211 -67 0
211 16 8 -27 -157 67 0
-212 182 0
-212 46 0
-212 61 0
-212 -109 0
-212 167 0
212 -182 -46 -61 109 -167 0
-213 47 0
-213 40 0
-213 -54 0
-213 -140 0
-213 -29 0
213 -47 -40 54 140 29 0
-214 157 0
-214 87 0
-214 -55 0
-214 53 0
-214 49 0
214 -157 -87 55 -53 -49 0
-215 61 0
-215 149 0
-215 38 0
-215 -114 0
-215 -89 0
215 -61 -149 -38 114 89 0
211 212 213 214 215 0
-216 80 0
-216 -131 0
-216 17 0
-216 124 0
-216 -155 0
216 -80 131 -17 -124 155 0
-217 58 0
-217 -37 0
-217 -151 0
-217 -124 0
-217 -88 0
217 -58 37 151 124 88 0
-218 -139 0
-218 104 0
-218 -97 0
-218 43 0
-218 44 0
218 139 -104 97 -43 -44 0
-219 60 0
-219 -133 0
-219 154 0
-219 -71 0
-219 -106 0
219 -60 133 -154 71 106 0
-220 -72 0
-220 115 0
-220 122 0
-220 -75 0
-220 -161 0
220 72 -115 -122 75 161 0
216 217 218 219 220 0
-221 159 0
-221 -157 0
-221 -142 0
-221 -102 0
-221 -135 0
221 -159 157 142 102 135 0
-222 86 0
-222 -148 0
-222 -87 0
-222 165 0
-222 20 0
222 -86 148 87 -165 -20 0
-223 -171 0
-223 -90 0
-223 57 0
-223 -183 0
-223 -89 0
223 171 90 -57 183 89 0
-224 -124 0
-224 -17 0
-224 -168 0
-224 139 0
-224 109 0
224 124 17 168 -139 -109 0
-225 -54 0
-225 -87 0
-225 8 0
-225 -138 0
-225 -140 0
225 54 87 -8 138 140 0
221 222 223 224 225 0
-226 19 0
-226 171 0
-226 -181 0
-226 -144 0
-226 -175 0
226 -19 -171 181 144 175 0
-227 -53 0
-227 95 0
-227 42 0
-227 -13 0
-227 -58 0
227 53 -95 -42 13 58 0
-228 -135 0
-228 92 0
-228 -149 0
-228 157 0
-228 -85 0
228 135 -92 149 -157 85 0
-229 -131 0
-229 -21 0
-229 138 0
-229 66 0
-229 -107 0
229 131 21 -138 -66 107 0
-230 -132 0
-230 114 0
-230 42 0
-230 93 0
-230 142 0
230 132 -114 -42 -93 -142 0
226 227 228 229 230 0
-231 -185 0
-231 -184 0
-231 -56 0
-231 -165 0
-231 118 0
231 185 184 56 165 -118 0
-232 172 0
-232 -45 0
-232 -7 0
-232 -30 0
-232 71 0
232 -172 45 7 30 -71 0
-233 119 0
-233 177 0
-233 7 0
-233 142 0
-233 -76 0
233 -119 -177 -7 -142 76 0
-234 -114 0
-234 -64 0
-234 -31 0
-234 -50 0
-234 167 0
234 114 64 31 50 -167 0
-235 38 0
-235 163 0
-235 -28 0
-235 -152 0
-235 183 0
235 -38 -163 28 152 -183 0
231 232 233 234 235 0
-236 168 0
-236 -68 0
-236 130 0
-236 -65 0
-236 -1 0
236 -168 68 -130 65 1 0
-237 -156 0
-237 -84 0
-237 -79 0
-237 66 0
-237 -167 0
237 156 84 79 -66 167 0
-238 -97 0
-238 -87 0
-238 -79 0
-238 -31 0
-238 -43 0
238 97 87 79 31 43 0
-239 8 0
-239 44 0
-239 -93 0
-239 128 0
-239 -123 0
239 -8 -44 93 -128 123 0
-240 27 0
-240 146 0
-240 20 0
-240 -30 0
-240 -49 0
240 -27 -146 -20 30 49 0
236 237 238 239 240 0
-241 -82 0
-241 -185 0
-241 -95 0
-241 -74 0
-241 86 0
241 82 185 95 74 -86 0
-242 136 0
-242 14 0
-242 -90 0
-242 152 0
-242 -56 0
242 -136 -14 90 -152 56 0
-243 -155 0
-243 189 0
-243 96 0
-243 69 0
-243 121 0
243 155 -189 -96 -69 -121 0
-244 38 0
-244 3 0
-244 35 0
-244 -53 0
-244 -9 0
244 -38 -3 -35 53 9 0
-245 83 0
-245 111 0
-245 -71 0
-245 -139 0
-245 -120 0
245 -83 -111 71 139 120 0
241 242 243 244 245 0
-246 -95 0
-246 -27 0
-246 98 0
-246 84 0
-246 -67 0
246 95 27 -98 -84 67 0
-247 -17 0
-247 114 0
-247 66 0
-247 36 0
-247 -174 0
247 17 -114 -66 -36 174 0
-248 -87 0
-248 -183 0
-248 16 0
-248 176 0
-248 -173 0
248 87 183 -16 -176 173 0
-249 96 0
-249 95 0
-249 164 0
-249 -86 0
-249 7 0
249 -96 -95 -164 86 -7 0
-250 55 0
-250 71 0
-250 60 0
-250 -13 0
-250 -112 0
250 -55 -71 -60 13 112 0
246 247 248 249 250 0
-251 134 0
-251 175 0
-251 104 0
-251 -98 0
-251 32 0
251 -134 -175 -104 98 -32 0
-252 135 0
-252 -57 0
-252 169 0
-252 -120 0
-252 62 0
252 -135 57 -169 120 -62 0
-253 14 0
-253 -4 0
-253 76 0
-253 -29 0
-253 184 0
253 -14 4 -76 29 -184 0
-254 156 0
-254 11 0
-254 -30 0
-254 -2 0
-254 -145 0
254 -156 -11 30 2 145 0
-255 -5 0
-255 -85 0
-255 120 0
-255 -61 0
-255 -27 0
255 5 85 -120 61 27 0
251 252 253 254 255 0
-256 -101 0
-256 -129 0
-256 72 0
-256 -15 0
-256 -50 0
256 101 129 -72 15 50 0
-257 179 0
-257 48 0
-257 161 0
-257 54 0
-257 -1 0
257 -179 -48 -161 -54 1 0
-258 -38 0
-258 39 0
-258 -138 0
-258 187 0
-258 76 0
258 38 -39 138 -187 -76 0
-259 -36 0
-259 176 0
-259 -182 0
-259 65 0
-259 137 0
259 36 -176 182 -65 -137 0
-260 24 0
-260 136 0
-260 98 0
-260 -183 0
-260 74 0
260 -24 -136 -98 183 -74 0
256 257 258 259 260 0
-261 -110 0
-261 46 0
-261 33 0
-261 -147 0
-261 133 0
261 110 -46 -33 147 -133 0
-262 -167 0
-262 -85 0
-262 -54 0
-262 68 0
-262 107 0
262 167 85 54 -68 -107 0
-263 39 0
-263 88 0
-263 -109 0
-263 -62 0
-263 147 0
263 -39 -88 109 62 -147 0
-264 -61 0
-264 -156 0
-264 16 0
-264 -163 0
-264 -147 0
264 61 156 -16 163 147 0
-265 -127 0
-265 -47 0
-265 68 0
-265 67 0
-265 109 0
265 127 47 -68 -67 -109 0
261 262 263 264 265 0
-266 189 0
-266 -38 0
-266 -128 0
-266 -173 0
-266 140 0
266 -189 38 128 173 -140 0
-267 -87 0
-267 190 0
-267 8 0
-267 76 0
-267 -69 0
267 87 -190 -8 -76 69 0
-268 183 0
-268 58 0
-268 -63 0
-268 76 0
-268 72 0
268 -183 -58 63 -76 -72 0
-269 77 0
-269 157 0
-269 -23 0
-269 33 0
-269 26 0
269 -77 -157 23 -33 -26 0
-270 -150 0
-270 -26 0
-270 2 0
-270 116 0
-270 42 0
270 150 26 -2 -116 -42 0
266 267 268 269 270 0
-271 -31 0
-271 -98 0
-271 -136 0
-271 -17 0
-271 175 0
271 31 98 136 17 -175 0
-272 -36 0
-272 -180 0
-272 -116 0
-272 34 0
-272 -136 0
272 36 180 116 -34 136 0
-273 -88 0
-273 10 0
-273 148 0
-273 -125 0
-273 -19 0
273 88 -10 -148 125 19 0
-274 183 0
-274 164 0
-274 58 0
-274 -41 0
-274 154 0
274 -183 -164 -58 41 -154 0
-275 -161 0
-275 -138 0
-275 67 0
-275 136 0
-275 117 0
275 161 138 -67 -136 -117 0
271 272 273 274 275 0
-276 -149 0
-276 -167 0
-276 -63 0
-276 -85 0
-276 -111 0
276 149 167 63 85 111 0
-277 -86 0
-277 131 0
-277 -48 0
-277 -13 0
-277 80 0
277 86 -131 48 13 -80 0
-278 87 0
-278 -124 0
-278 23 0
-278 -58 0
-278 168 0
278 -87 124 -23 58 -168 0
-279 66 0
-279 -146 0
-279 -85 0
-279 -172 0
-279 7 0
279 -66 146 85 172 -7 0
-280 25 0
-280 -62 0
-280 37 0
-280 21 0
-280 -181 0
280 -25 62 -37 -21 181 0
276 277 278 279 280 0
-281 103 0
-281 -71 0
-281 -116 0
-281 -76 0
-281 -150 0
281 -103 71 116 76 150 0
-282 20 0
-282 127 0
-282 162 0
-282 117 0
-282 -66 0
282 -20 -127 -162 -117 66 0
-283 -63 0
-283 -76 0
-283 -170 0
-283 -38 0
-283 -66 0
283 63 76 170 38 66 0
-284 -162 0
-284 97 0
-284 18 0
-284 7 0
-284 91 0
284 162 -97 -18 -7 -91 0
-285 -160 0
-285 -147 0
-285 -42 0
-285 154 0
-285 120 0
285 160 147 42 -154 -120 0
281 282 283 284 285 0
-286 -76 0
-286 12 0
-286 -95 0
-286 -21 0
-286 -62 0
286 76 -12 95 21 62 0
-287 152 0
-287 -121 0
-287 -29 0
-287 144 0
-287 -172 0
287 -152 121 29 -144 172 0
-288 185 0
-288 -157 0
-288 -74 0
-288 25 0
-288 66 0
288 -185 157 74 -25 -66 0
-289 148 0
-289 49 0
-289 69 0
-289 -25 0
-289 -174 0
289 -148 -49 -69 25 174 0
-290 92 0
-290 85 0
-290 140 0
-290 -63 0
-290 162 0
290 -92 -85 -140 63 -162 0
286 287 288 289 290 0
-291 97 0
-291 -95 0
-291 90 0
-291 125 0
-291 -105 0
291 -97 95 -90 -125 105 0
-292 76 0
-292 37 0
-292 29 0
-292 77 0
-292 -78 0
292 -76 -37 -29 -77 78 0
-293 -102 0
-293 -183 0
-293 -17 0
-293 23 0
-293 4 0
293 102 183 17 -23 -4 0
-294 40 0
-294 86 0
-294 7 0
-294 -175 0
-294 56 0
294 -40 -86 -7 175 -56 0
-295 130 0
-295 97 0
-295 67 0
-295 124 0
-295 -36 0
295 -130 -97 -67 -124 36 0
291 292 293 294 295 0
-296 15 0
-296 66 0
-296 94 0
-296 -48 0
-296 89 0
296 -15 -66 -94 48 -89 0
-297 140 0
-297 185 0
-297 -169 0
-297 -56 0
-297 85 0
297 -140 -185 169 56 -85 0
-298 177 0
-298 30 0
-298 23 0
-298 133 0
-298 -28 0
298 -177 -30 -23 -133 28 0
-299 130 0
-299 52 0
-299 -97 0
-299 -78 0
-299 -136 0
299 -130 -52 97 78 136 0
-300 150 0
-300 -170 0
-300 144 0
-300 -76 0
-300 12 0
300 -150 170 -144 76 -12 0
296 297 298 299 300 0
-301 95 0
-301 6 0
-301 -15 0
-301 -37 0
-301 2 0
301 -95 -6 15 37 -2 0
-302 83 0
-302 -91 0
-302 187 0
-302 -125 0
-302 -22 0
302 -83 91 -187 125 22 0
-303 -113 0
-303 -134 0
-303 -10 0
-303 -88 0
-303 -90 0
303 113 134 10 88 90 0
-304 160 0
-304 -20 0
-304 -132 0
-304 111 0
-304 -84 0
304 -160 20 132 -111 84 0
-305 -98 0
-305 -99 0
-305 23 0
-305 -179 0
-305 -110 0
305 98 99 -23 179 110 0
301 302 303 304 305 0
-306 33 0
-306 -34 0
-306 -131 0
-306 147 0
-306 97 0
306 -33 34 131 -147 -97 0
-307 82 0
-307 130 0
-307 -137 0
-307 -161 0
-307 188 0
307 -82 -130 137 161 -188 0
-308 -88 0
-308 -128 0
-308 -22 0
-308 -40 0
-308 -33 0
308 88 128 22 40 33 0
-309 85 0
-309 95 0
-309 164 0
-309 -134 0
-309 129 0
309 -85 -95 -164 134 -129 0
-310 -189 0
-310 7 0
-310 -113 0
-310 -135 0
-310 -75 0
310 189 -7 113 135 75 0
306 307 308 309 310 0
-311 -129 0
-311 161 0
-311 -60 0
-311 173 0
-311 -3 0
311 129 -161 60 -173 3 0
-312 177 0
-312 129 0
-312 75 0
-312 2 0
-312 149 0
312 -177 -129 -75 -2 -149 0
-313 -163 0
-313 93 0
-313 47 0
-313 -33 0
-313 -190 0
313 163 -93 -47 33 190 0
-314 157 0
-314 34 0
-314 -43 0
-314 114 0
-314 133 0
314 -157 -34 43 -114 -133 0
-315 -118 0
-315 12 0
-315 -163 0
-315 30 0
-315 -59 0
315 118 -12 163 -30 59 0
311 312 313 314 315 0
-316 -134 0
-316 -171 0
-316 -58 0
-316 -184 0
-316 26 0
316 134 171 58 184 -26 0
-317 -98 0
-317 -112 0
-317 -185 0
-317 39 0
-317 108 0
317 98 112 185 -39 -108 0
-318 55 0
-318 38 0
-318 2 0
-318 -158 0
-318 189 0
318 -55 -38 -2 158 -189 0
-319 63 0
-319 166 0
-319 53 0
-319 -23 0
-319 99 0
319 -63 -166 -53 23 -99 0
-320 14 0
-320 78 0
-320 -37 0
-320 -184 0
-320 -47 0
320 -14 -78 37 184 47 0
316 317 318 319 320 0
-321 -76 0
-321 -41 0
-321 -168 0
-321 -39 0
-321 158 0
321 76 41 168 39 -158 0
-322 -126 0
-322 46 0
-322 17 0
-322 -129 0
-322 160 0
322 126 -46 -17 129 -160 0
-323 -103 0
-323 130 0
-323 170 0
-323 63 0
-323 -151 0
323 103 -130 -170 -63 151 0
-324 -57 0
-324 -156 0
-324 149 0
-324 -40 0
-324 -34 0
324 57 156 -149 40 34 0
-325 53 0
-325 -149 0
-325 72 0
-325 -144 0
-325 165 0
325 -53 149 -72 144 -165 0
321 322 323 324 325 0
-326 99 0
-326 -97 0
-326 -41 0
-326 171 0
-326 112 0
326 -99 97 41 -171 -112 0
-327 -40 0
-327 76 0
-327 84 0
-327 -139 0
-327 -140 0
327 40 -76 -84 139 140 0
-328 43 0
-328 -109 0
-328 7 0
-328 155 0
-328 -85 0
328 -43 109 -7 -155 85 0
-329 -145 0
-329 -56 0
-329 -186 0
-329 -70 0
-329 147 0
329 145 56 186 70 -147 0
-330 -89 0
-330 1 0
-330 171 0
-330 -178 0
-330 35 0
330 89 -1 -171 178 -35 0
326 327 328 329 330 0
-331 101 0
-331 -33 0
-331 -76 0
-331 170 0
-331 145 0
331 -101 33 76 -170 -145 0
-332 45 0
-332 -31 0
-332 186 0
-332 90 0
-332 143 0
332 -45 31 -186 -90 -143 0
-333 -19 0
-333 -114 0
-333 -148 0
-333 -44 0
-333 101 0
333 19 114 148 44 -101 0
-334 44 0
-334 -59 0
-334 88 0
-334 84 0
-334 -135 0
334 -44 59 -88 -84 135 0
-335 11 0
-335 71 0
-335 -127 0
-335 103 0
-335 25 0
335 -11 -71 127 -103 -25 0
331 332 333 334 335 0
-336 6 0
-336 -70 0
-336 51 0
-336 -100 0
-336 30 0
336 -6 70 -51 100 -30 0
-337 10 0
-337 126 0
-337 36 0
-337 123 0
-337 183 0
337 -10 -126 -36 -123 -183 0
-338 107 0
-338 -71 0
-338 94 0
-338 -28 0
-338 -21 0
338 -107 71 -94 28 21 0
-339 -125 0
-339 -19 0
-339 -66 0
-339 -152 0
-339 69 0
339 125 19 66 152 -69 0
-340 -46 0
-340 90 0
-340 -129 0
-340 64 0
-340 169 0
340 46 -90 129 -64 -169 0
336 337 338 339 340 0
-341 1 0
-341 160 0
-341 -181 0
-341 153 0
-341 146 0
341 -1 -160 181 -153 -146 0
-342 -142 0
-342 148 0
-342 101 0
-342 75 0
-342 -159 0
342 142 -148 -101 -75 159 0
-343 57 0
-343 -35 0
-343 -151 0
-343 45 0
-343 102 0
343 -57 35 151 -45 -102 0
-344 180 0
-344 -32 0
-344 -82 0
-344 -44 0
-344 -16 0
344 -180 32 82 44 16 0
-345 -157 0
-345 -152 0
-345 -65 0
-345 97 0
-345 -1 0
345 157 152 65 -97 1 0
341 342 343 344 345 0
-346 51 0
-346 -134 0
-346 -78 0
-346 19 0
-346 109 0
346 -51 134 78 -19 -109 0
-347 7 0
-347 -92 0
-347 -23 0
-347 176 0
-347 76 0
347 -7 92 23 -176 -76 0
-348 -61 0
-348 120 0
-348 -187 0
-348 117 0
-348 147 0
348 61 -120 187 -117 -147 0
-349 -38 0
-349 -146 0
-349 91 0
-349 28 0
-349 -99 0
349 38 146 -91 -28 99 0
-350 55 0
-350 -42 0
-350 -169 0
-350 -104 0
-350 -100 0
350 -55 42 169 104 100 0
346 347 348 349 350 0
-351 87 0
-351 -161 0
-351 105 0
-351 148 0
-351 44 0
351 -87 161 -105 -148 -44 0
-352 122 0
-352 123 0
-352 38 0
-352 115 0
-352 92 0
352 -122 -123 -38 -115 -92 0
-353 -95 0
-353 112 0
-353 -157 0
-353 -18 0
-353 -185 0
353 95 -112 157 18 185 0
-354 175 0
-354 146 0
-354 103 0
-354 -20 0
-354 -19 0
354 -175 -146 -103 20 19 0
-355 -105 0
-355 -48 0
-355 98 0
-355 141 0
-355 34 0
355 105 48 -98 -141 -34 0
351 352 353 354 355 0
-356 4 0
-356 136 0
-356 -64 0
-356 1 0
-356 27 0
356 -4 -136 64 -1 -27 0
-357 -69 0
-357 107 0
-357 -91 0
-357 -125 0
-357 3 0
357 69 -107 91 125 -3 0
-358 -137 0
-358 -60 0
-358 -138 0
-358 -51 0
-358 147 0
358 137 60 138 51 -147 0
-359 -126 0
-359 19 0
-359 175 0
-359 180 0
-359 104 0
359 126 -19 -175 -180 -104 0
-360 53 0
-360 -112 0
-360 -62 0
-360 -173 0
-360 128 0
360 -53 112 62 173 -128 0
356 357 358 359 360 0
-361 -67 0
-361 95 0
-361 5 0
-361 -80 0
-361 96 0
361 67 -95 -5 80 -96 0
-362 -156 0
-362 -119 0
-362 105 0
-362 -81 0
-362 -84 0
362 156 119 -105 81 84 0
-363 -127 0
-363 -24 0
-363 54 0
-363 157 0
-363 -97 0
363 127 24 -54 -157 97 0
-364 12 0
-364 -188 0
-364 -140 0
-364 65 0
-364 -54 0
364 -12 188 140 -65 54 0
-365 42 0
-365 161 0
-365 34 0
-365 -150 0
-365 -90 0
365 -42 -161 -34 150 90 0
361 362 363 364 365 0
-366 100 0
-366 135 0
-366 79 0
-366 168 0
-366 -1 0
366 -100 -135 -79 -168 1 0
-367 164 0
-367 91 0
-367 22 0
-367 125 0
-367 47 0
367 -164 -91 -22 -125 -47 0
-368 108 0
-368 -69 0
-368 -34 0
-368 -12 0
-368 174 0
368 -108 69 34 12 -174 0
-369 -22 0
-369 -75 0
-369 -82 0
-369 189 0
-369 -72 0
369 22 75 82 -189 72 0
-370 -55 0
-370 -142 0
-370 179 0
-370 163 0
-370 153 0
370 55 142 -179 -163 -153 0
366 367 368 369 370 0
-371 7 0
-371 70 0
-371 -181 0
-371 59 0
-371 95 0
371 -7 -70 181 -59 -95 0
-372 -31 0
-372 149 0
-372 -159 0
-372 -147 0
-372 50 0
372 31 -149 159 147 -50 0
-373 -10 0
-373 91 0
-373 55 0
-373 -52 0
-373 166 0
373 10 -91 -55 52 -166 0
-374 -81 0
-374 14 0
-374 5 0
-374 -131 0
-374 -169 0
374 81 -14 -5 131 169 0
-375 64 0
-375 131 0
-375 -106 0
-375 -5 0
-375 92 0
375 -64 -131 106 5 -92 0
371 372 373 374 375 0
-376 7 0
-376 99 0
-376 -62 0
-376 -72 0
-376 51 0
376 -7 -99 62 72 -51 0
-377 -127 0
-377 -104 0
-377 -181 0
-377 -85 0
-377 11 0
377 127 104 181 85 -11 0
-378 134 0
-378 68 0
-378 -9 0
-378 146 0
-378 130 0
378 -134 -68 9 -146 -130 0
-379 -38 0
-379 -14 0
-379 65 0
-379 -157 0
-379 -101 0
379 38 14 -65 157 101 0
-380 76 0
-380 -178 0
-380 26 0
-380 -61 0
-380 118 0
380 -76 178 -26 61 -118 0
376 377 378 379 380 0
-381 -23 0
-381 -163 0
-381 -75 0
-381 107 0
-381 130 0
381 23 163 75 -107 -130 0
-382 69 0
-382 20 0
-382 -75 0
-382 56 0
-382 -132 0
382 -69 -20 75 -56 132 0
-383 -102 0
-383 157 0
-383 184 0
-383 -100 0
-383 38 0
383 102 -157 -184 100 -38 0
-384 -44 0
-384 -23 0
-384 66 0
-384 -46 0
-384 -173 0
384 44 23 -66 46 173 0
-385 -94 0
-385 -124 0
-385 -129 0
-385 -30 0
-385 71 0
385 94 124 129 30 -71 0
381 382 383 384 385 0
-386 144 0
-386 139 0
-386 -82 0
-386 -9 0
-386 13 0
386 -144 -139 82 9 -13 0
-387 35 0
-387 169 0
-387 -99 0
-387 -167 0
-387 39 0
387 -35 -169 99 167 -39 0
-388 122 0
-388 135 0
-388 136 0
-388 125 0
-388 43 0
388 -122 -135 -136 -125 -43 0
-389 172 0
-389 -33 0
-389 48 0
-389 -127 0
-389 -133 0
389 -172 33 -48 127 133 0
-390 166 0
-390 47 0
-390 -61 0
-390 -78 0
-390 -24 0
390 -166 -47 61 78 24 0
386 387 388 389 390 0
-391 84 0
-391 -121 0
-391 -59 0
-391 175 0
-391 -76 0
391 -84 121 59 -175 76 0
-392 -154 0
-392 -31 0
-392 -151 0
-392 -8 0
-392 188 0
392 154 31 151 8 -188 0
-393 28 0
-393 -68 0
-393 98 0
-393 152 0
-393 146 0
393 -28 68 -98 -152 -146 0
-394 56 0
-394 -10 0
-394 165 0
-394 -106 0
-394 145 0
394 -56 10 -165 106 -145 0
-395 21 0
-395 147 0
-395 58 0
-395 78 0
-395 79 0
395 -21 -147 -58 -78 -79 0
391 392 393 394 395 0
-396 115 0
-396 -27 0
-396 104 0
-396 144 0
-396 -128 0
396 -115 27 -104 -144 128 0
-397 99 0
-397 -176 0
-397 -186 0
-397 -9 0
-397 120 0
397 -99 176 186 9 -120 0
-398 -146 0
-398 39 0
-398 -173 0
-398 -9 0
-398 22 0
398 146 -39 173 9 -22 0
-399 28 0
-399 158 0
-399 -69 0
-399 37 0
-399 89 0
399 -28 -158 69 -37 -89 0
-400 -148 0
-400 -171 0
-400 61 0
-400 -174 0
-400 -33 0
400 148 171 -61 174 33 0
396 397 398 399 400 0
-401 106 0
-401 67 0
-401 -4 0
-401 72 0
-401 105 0
401 -106 -67 4 -72 -105 0
-402 140 0
-402 -43 0
-402 51 0
-402 -42 0
-402 176 0
402 -140 43 -51 42 -176 0
-403 -96 0
-403 83 0
-403 -27 0
-403 -153 0
-403 -46 0
403 96 -83 27 153 46 0
-404 -133 0
-404 -56 0
-404 67 0
-404 -94 0
-404 60 0
404 133 56 -67 94 -60 0
-405 -118 0
-405 96 0
-405 81 0
-405 -65 0
-405 74 0
405 118 -96 -81 65 -74 0
401 402 403 404 405 0
-406 -33 0
-406 30 0
-406 -46 0
-406 54 0
-406 -125 0
406 33 -30 46 -54 125 0
-407 -124 0
-407 171 0
-407 136 0
-407 -143 0
-407 52 0
407 124 -171 -136 143 -52 0
-408 -34 0
-408 -127 0
-408 -184 0
-408 -80 0
-408 19 0
408 34 127 184 80 -19 0
-409 50 0
-409 -22 0
-409 -143 0
-409 131 0
-409 11 0
409 -50 22 143 -131 -11 0
-410 63 0
-410 154 0
-410 45 0
-410 -6 0
-410 17 0
410 -63 -154 -45 6 -17 0
406 407 408 409 410 0
-411 40 0
-411 122 0
-411 119 0
-411 1 0
-411 185 0
411 -40 -122 -119 -1 -185 0
-412 -98 0
-412 -190 0
-412 -163 0
-412 -151 0
-412 -76 0
412 98 190 163 151 76 0
-413 -93 0
-413 190 0
-413 125 0
-413 60 0
-413 -39 0
413 93 -190 -125 -60 39 0
-414 -86 0
-414 31 0
-414 -98 0
-414 93 0
-414 3 0
414 86 -31 98 -93 -3 0
-415 -24 0
-415 -50 0
-415 171 0
-415 -85 0
-415 151 0
415 24 50 -171 85 -151 0
411 412 413 414 415 0
-416 105 0
-416 80 0
-416 122 0
-416 187 0
-416 45 0
416 -105 -80 -122 -187 -45 0
-417 179 0
-417 80 0
-417 -46 0
-417 143 0
-417 136 0
417 -179 -80 46 -143 -136 0
-418 176 0
-418 129 0
-418 37 0
-418 94 0
-418 -88 0
418 -176 -129 -37 -94 88 0
-419 -27 0
-419 -161 0
-419 96 0
-419 -38 0
-419 181 0
419 27 161 -96 38 -181 0
-420 -77 0
-420 36 0
-420 -128 0
-420 174 0
-420 -69 0
420 77 -36 128 -174 69 0
416 417 418 419 420 0
-421 153 0
-421 -13 0
-421 -86 0
-421 -93 0
-421 -16 0
421 -153 13 86 93 16 0
-422 163 0
-422 1 0
-422 -102 0
-422 -104 0
-422 -9 0
422 -163 -1 102 104 9 0
-423 74 0
-423 -118 0
-423 -14 0
-423 190 0
-423 62 0
423 -74 118 14 -190 -62 0
-424 186 0
-424 55 0
-424 -73 0
-424 -23 0
-424 157 0
424 -186 -55 73 23 -157 0
-425 122 0
-425 -176 0
-425 -24 0
-425 -72 0
-425 -123 0
425 -122 176 24 72 123 0
421 422 423 424 425 0
-426 24 0
-426 146 0
-426 22 0
-426 -15 0
-426 89 0
426 -24 -146 -22 15 -89 0
-427 -68 0
-427 101 0
-427 106 0
-427 -176 0
-427 -86 0
427 68 -101 -106 176 86 0
-428 -15 0
-428 64 0
-428 -68 0
-428 -71 0
-428 58 0
428 15 -64 68 71 -58 0
-429 -80 0
-429 -23 0
-429 -25 0
-429 61 0
-429 159 0
429 80 23 25 -61 -159 0
-430 -109 0
-430 -18 0
-430 -168 0
-430 105 0
-430 28 0
430 109 18 168 -105 -28 0
426 427 428 429 430 0
